124	100
188	41
46	113
120	89
122	52
105	122
60	74
3	188
169	82
28	70
84	91
84	176
115	27
147	9
80	16
31	104
65	157
113	180
70	61
138	144
4	107
91	84
62	170
44	82
162	139
173	68
127	40
82	128
174	38
153	34
